30
1 0 1
2 0 3
3 0 8
3 1 10
3 2 10
4 0 4
4 1 6
4 2 1
4 3 2
5 1 6
5 2 2
5 3 3
5 4 8
6 0 5
6 2 2
6 3 5
6 4 6
6 5 9
7 0 1
7 3 5
8 1 5
8 3 4
8 6 9
9 3 8
9 4 7
9 6 7
9 7 10
10 0 6
10 6 3
10 7 3
11 0 3
11 2 8
11 5 3
11 6 5
11 7 7
11 10 7
12 0 1
12 2 9
12 3 11
12 8 3
12 9 5
12 10 10
13 0 11
13 5 7
13 7 5
13 10 4
13 11 4
13 12 4
14 0 4
14 1 8
14 3 11
14 4 7
14 7 10
14 8 2
14 9 7
14 10 2
14 12 3
14 13 10
15 0 4
15 1 7
15 3 9
15 4 11
15 6 6
15 7 3
15 8 11
15 9 3
15 13 9
16 1 4
16 2 9
16 4 6
16 5 5
16 6 1
16 7 5
16 9 11
16 10 2
16 11 5
16 12 11
16 13 11
17 0 2
17 3 3
17 6 5
17 7 5
17 8 1
17 10 4
17 11 4
17 12 11
17 13 7
17 16 7
18 1 3
18 4 7
18 7 7
18 8 5
18 13 6
18 15 6
18 16 4
18 17 4
19 0 3
19 2 7
19 4 9
19 5 10
19 6 3
19 8 11
19 12 2
19 14 7
19 16 2
19 17 4
20 3 6
20 4 6
20 6 7
20 11 4
20 12 3
20 18 2
20 19 10
21 0 11
21 2 9
21 4 9
21 5 8
21 8 10
21 13 6
21 14 3
21 15 11
21 17 2
21 19 2
21 20 10
22 1 11
22 2 11
22 3 8
22 4 9
22 5 8
22 6 5
22 7 2
22 8 11
22 9 2
22 13 1
22 15 7
22 16 1
22 18 6
22 20 6
22 21 7
23 2 10
23 3 6
23 8 9
23 9 3
23 10 9
23 11 9
23 15 7
23 17 2
23 18 5
23 20 9
24 0 2
24 1 11
24 3 6
24 4 7
24 5 10
24 7 9
24 10 1
24 11 3
24 13 3
24 15 4
24 16 10
24 20 8
25 0 7
25 2 1
25 3 10
25 8 9
25 11 5
25 12 6
25 15 9
25 17 11
25 21 2
25 22 1
26 1 2
26 4 6
26 5 5
26 9 8
26 11 6
26 12 11
26 14 9
26 15 10
26 16 9
26 17 3
26 19 7
27 2 9
27 3 2
27 6 4
27 7 1
27 9 2
27 11 7
27 14 9
27 15 4
27 16 5
27 18 7
27 20 10
27 21 11
27 24 6
27 25 2
28 1 2
28 3 9
28 4 6
28 5 1
28 6 7
28 7 3
28 9 11
28 11 1
28 13 8
28 17 3
28 18 4
28 21 9
28 23 8
28 24 3
28 25 1
29 0 5
29 5 7
29 6 10
29 7 3
29 8 1
29 10 3
29 11 3
29 14 4
29 15 4
29 16 8
29 18 10
29 19 5
29 21 5
29 23 5
29 25 7
29 26 2
29 27 10
29 28 11
